<?xml version = "1.0" standalone="yes"?>
<!-- This file has been generated by DOcplex version 2.23.222  -->
<CPLEXSolution version="1.0">
 <header
   problemName="CVRP"
   objectiveValue="19694"
  />
 <variables>
  <variable name="x_0_3" index="2" value="1.00000"/>
  <variable name="x_0_4" index="3" value="1.00000"/>
  <variable name="x_0_6" index="5" value="1.00000"/>
  <variable name="x_0_7" index="6" value="1.00000"/>
  <variable name="x_0_10" index="9" value="1.00000"/>
  <variable name="x_0_11" index="10" value="1.00000"/>
  <variable name="x_0_12" index="11" value="1.00000"/>
  <variable name="x_0_14" index="13" value="1.00000"/>
  <variable name="x_0_16" index="15" value="1.00000"/>
  <variable name="x_0_17" index="16" value="1.00000"/>
  <variable name="x_0_18" index="17" value="1.00000"/>
  <variable name="x_0_19" index="18" value="1.00000"/>
  <variable name="x_0_21" index="20" value="1.00000"/>
  <variable name="x_0_22" index="21" value="1.00000"/>
  <variable name="x_0_27" index="26" value="1.00000"/>
  <variable name="x_1_2" index="30" value="1.00000"/>
  <variable name="x_2_0" index="58" value="1.00000"/>
  <variable name="x_3_8" index="94" value="1.00000"/>
  <variable name="x_4_20" index="135" value="1.00000"/>
  <variable name="x_5_0" index="145" value="1.00000"/>
  <variable name="x_6_0" index="174" value="1.00000"/>
  <variable name="x_7_26" index="228" value="1.00000"/>
  <variable name="x_8_0" index="232" value="1.00000"/>
  <variable name="x_9_15" index="275" value="1.00000"/>
  <variable name="x_10_29" index="318" value="1.00000"/>
  <variable name="x_11_23" index="341" value="1.00000"/>
  <variable name="x_12_0" index="348" value="1.00000"/>
  <variable name="x_13_28" index="404" value="1.00000"/>
  <variable name="x_14_24" index="429" value="1.00000"/>
  <variable name="x_15_0" index="435" value="1.00000"/>
  <variable name="x_16_0" index="464" value="1.00000"/>
  <variable name="x_17_0" index="493" value="1.00000"/>
  <variable name="x_18_25" index="546" value="1.00000"/>
  <variable name="x_19_9" index="560" value="1.00000"/>
  <variable name="x_20_0" index="580" value="1.00000"/>
  <variable name="x_21_1" index="610" value="1.00000"/>
  <variable name="x_22_13" index="651" value="1.00000"/>
  <variable name="x_23_0" index="667" value="1.00000"/>
  <variable name="x_24_0" index="696" value="1.00000"/>
  <variable name="x_25_0" index="725" value="1.00000"/>
  <variable name="x_26_0" index="754" value="1.00000"/>
  <variable name="x_27_0" index="783" value="1.00000"/>
  <variable name="x_28_0" index="812" value="1.00000"/>
  <variable name="x_29_5" index="846" value="1.00000"/>
  <variable name="u_1" index="870" value="72.00000"/>
  <variable name="u_2" index="871" value="76.00000"/>
  <variable name="u_3" index="872" value="55.00000"/>
  <variable name="u_4" index="873" value="8.00000"/>
  <variable name="u_5" index="874" value="67.00000"/>
  <variable name="u_6" index="875" value="70.00000"/>
  <variable name="u_7" index="876" value="63.00000"/>
  <variable name="u_8" index="877" value="71.00000"/>
  <variable name="u_9" index="878" value="59.00000"/>
  <variable name="u_10" index="879" value="22.00000"/>
  <variable name="u_11" index="880" value="13.00000"/>
  <variable name="u_12" index="881" value="76.00000"/>
  <variable name="u_13" index="882" value="46.00000"/>
  <variable name="u_14" index="883" value="48.00000"/>
  <variable name="u_15" index="884" value="75.00000"/>
  <variable name="u_16" index="885" value="76.00000"/>
  <variable name="u_17" index="886" value="64.00000"/>
  <variable name="u_18" index="887" value="44.00000"/>
  <variable name="u_19" index="888" value="5.00000"/>
  <variable name="u_20" index="889" value="76.00000"/>
  <variable name="u_21" index="890" value="29.00000"/>
  <variable name="u_22" index="891" value="15.00000"/>
  <variable name="u_23" index="892" value="63.00000"/>
  <variable name="u_24" index="893" value="76.00000"/>
  <variable name="u_25" index="894" value="76.00000"/>
  <variable name="u_26" index="895" value="73.00000"/>
  <variable name="u_27" index="896" value="68.00000"/>
  <variable name="u_28" index="897" value="74.00000"/>
  <variable name="u_29" index="898" value="36.00000"/>
 </variables>
</CPLEXSolution>
